computational_data/real_data/solutions/iris_trial_005_lex.sol
Optimal - objective value 7.43333100
      1 r_1                         1                0.933333
      4 r_4                         1                0.933333
      6 r_6                         1                0.933333
     23 r_23                        1                0.933333
     25 b_0                         1                     0.9
     30 b_5                         1                0.933333
     42 b_17                        1                0.933333
     44 b_19                        1                0.933333
